Academic license - for non-commercial use only
Gurobi Optimizer version 9.0.3 build v9.0.3rc0 (mac64)
Optimize a model with 21858 rows, 20160 columns and 110380 nonzeros
Model fingerprint: 0x523b3b94
Variable types: 0 continuous, 20160 integer (20160 binary)
Coefficient statistics:
  Matrix range     [1e+00, 1e+00]
  Objective range  [1e+01, 3e+04]
  Bounds range     [1e+00, 1e+00]
  RHS range        [1e+00, 2e+02]
Presolve removed 20 rows and 20 columns
Presolve time: 0.17s
Presolved: 21838 rows, 20140 columns, 110340 nonzeros
Variable types: 0 continuous, 20140 integer (20140 binary)
Found heuristic solution: objective 100499.00000

Concurrent LP optimizer: dual simplex and barrier
Showing barrier log only...

Root barrier log...

Ordering time: 0.06s

Barrier statistics:
 Dense cols : 80
 AA' NZ     : 9.484e+04
 Factor NZ  : 4.102e+05 (roughly 20 MBytes of memory)
 Factor Ops : 1.415e+07 (less than 1 second per iteration)
 Threads    : 3

                  Objective                Residual
Iter       Primal          Dual         Primal    Dual     Compl     Time
   0   2.23361244e+07 -5.17959403e+04  1.74e+02 0.00e+00  3.92e+03     0s
   1   1.82708787e+05 -1.84565381e+06  6.05e-01 3.14e+02  4.44e+01     0s
   2   1.12456040e+05 -1.49543481e+05  3.27e-02 2.14e+01  4.29e+00     0s
   3   1.08032209e+05  5.05503864e+04  8.59e-03 3.98e+00  9.18e-01     0s
   4   9.50559984e+04  7.51412108e+04  1.11e-03 1.09e+00  3.19e-01     1s
   5   9.04191416e+04  8.00012032e+04  4.77e-04 5.93e-01  1.67e-01     1s
   6   8.86979584e+04  8.20050134e+04  3.16e-04 3.59e-01  1.07e-01     1s
   7   8.66442782e+04  8.27285296e+04  1.32e-04 2.68e-01  6.29e-02     1s
   8   8.62427814e+04  8.33600333e+04  1.03e-04 1.90e-01  4.63e-02     1s
   9   8.58640900e+04  8.38104274e+04  7.62e-05 1.23e-01  3.30e-02     1s
  10   8.55302918e+04  8.40883196e+04  5.39e-05 8.42e-02  2.32e-02     1s
  11   8.53058517e+04  8.42496265e+04  3.95e-05 6.08e-02  1.70e-02     1s
  12   8.51957833e+04  8.43869372e+04  3.26e-05 4.08e-02  1.30e-02     1s
  13   8.51113556e+04  8.44043047e+04  2.75e-05 3.80e-02  1.14e-02     1s
  14   8.49924442e+04  8.44469258e+04  2.05e-05 3.15e-02  8.76e-03     1s
  15   8.49356875e+04  8.44762142e+04  1.70e-05 2.68e-02  7.38e-03     1s
  16   8.49066926e+04  8.45143910e+04  1.53e-05 2.08e-02  6.30e-03     1s
  17   8.48960444e+04  8.45235144e+04  1.48e-05 1.90e-02  5.98e-03     1s
  18   8.48357463e+04  8.45437196e+04  1.13e-05 1.56e-02  4.69e-03     1s
  19   8.47960563e+04  8.45589736e+04  9.01e-06 1.30e-02  3.81e-03     1s
  20   8.47594628e+04  8.45799900e+04  6.93e-06 9.36e-03  2.88e-03     1s
  21   8.47442847e+04  8.45946525e+04  6.10e-06 6.64e-03  2.40e-03     1s
  22   8.47174143e+04  8.46067357e+04  4.59e-06 4.53e-03  1.78e-03     1s
  23   8.46982563e+04  8.46141721e+04  3.54e-06 3.12e-03  1.35e-03     1s
  24   8.46776126e+04  8.46155231e+04  2.44e-06 2.85e-03  9.97e-04     1s
  25   8.46629663e+04  8.46194397e+04  1.64e-06 2.15e-03  6.99e-04     1s
  26   8.46558964e+04  8.46247007e+04  1.26e-06 1.24e-03  5.01e-04     1s
  27   8.46502271e+04  8.46280128e+04  9.55e-07 6.77e-04  3.57e-04     1s
  28   8.46466972e+04  8.46287907e+04  7.64e-07 5.45e-04  2.88e-04     1s
  29   8.46428481e+04  8.46292083e+04  5.64e-07 4.59e-04  2.19e-04     1s
  30   8.46405421e+04  8.46299141e+04  4.45e-07 3.37e-04  1.71e-04     1s
  31   8.46345743e+04  8.46312944e+04  1.40e-07 7.26e-05  5.27e-05     1s
  32   8.46334499e+04  8.46316260e+04  8.14e-08 2.02e-05  2.93e-05     1s
  33   8.46324456e+04  8.46317335e+04  3.30e-08 4.93e-06  1.14e-05     1s
  34   8.46323858e+04  8.46317464e+04  3.01e-08 2.35e-06  1.03e-05     1s
  35   8.46323247e+04  8.46317569e+04  5.21e-08 8.02e-07  9.11e-06     1s
  36   8.46322518e+04  8.46317568e+04  4.58e-08 7.53e-07  7.94e-06     1s
  37   8.46320460e+04  8.46317597e+04  2.66e-08 5.46e-07  4.59e-06     1s
  38   8.46318475e+04  8.46317618e+04  7.66e-09 6.69e-08  1.38e-06     1s
  39   8.46317677e+04  8.46317632e+04  1.15e-09 1.73e-08  7.21e-08     1s
  40   8.46317677e+04  8.46317632e+04  2.61e-09 1.72e-08  7.17e-08     1s
  41   8.46317677e+04  8.46317632e+04  2.61e-09 1.72e-08  7.16e-08     1s
  42   8.46317654e+04  8.46317631e+04  7.47e-09 8.32e-11  3.68e-08     1s
  43   8.46317654e+04  8.46317631e+04  8.40e-09 1.82e-11  3.67e-08     1s
  44   8.46317654e+04  8.46317631e+04  8.59e-09 2.18e-11  3.67e-08     1s
  45   8.46317654e+04  8.46317631e+04  8.53e-09 1.82e-11  3.67e-08     1s

Barrier solved model in 45 iterations and 1.23 seconds
Optimal objective 8.46317654e+04


Solved with barrier

Root relaxation: objective 8.463176e+04, 3392 iterations, 1.14 seconds

    Nodes    |    Current Node    |     Objective Bounds      |     Work
 Expl Unexpl |  Obj  Depth IntInf | Incumbent    BestBd   Gap | It/Node Time

     0     0 84631.7639    0 3094 100499.000 84631.7639  15.8%     -    2s
H    0     0                    87113.000000 84631.7639  2.85%     -    2s
H    0     0                    87013.000000 84631.7639  2.74%     -    2s
     0     0 84653.3800    0 3136 87013.0000 84653.3800  2.71%     -    5s
     0     0 84654.9704    0 3134 87013.0000 84654.9704  2.71%     -    5s
     0     0 84654.9704    0 3134 87013.0000 84654.9704  2.71%     -    5s
     0     0 84660.7224    0 3128 87013.0000 84660.7224  2.70%     -    6s
     0     0 84660.8417    0 3128 87013.0000 84660.8417  2.70%     -    6s
     0     0 84679.4739    0 3128 87013.0000 84679.4739  2.68%     -    8s
     0     0 84683.5074    0 3144 87013.0000 84683.5074  2.68%     -    9s
     0     0 84683.7544    0 3147 87013.0000 84683.7544  2.68%     -    9s
     0     0 84858.5625    0 3447 87013.0000 84858.5625  2.48%     -   12s
H    0     0                    86998.000000 84858.5625  2.46%     -   13s
     0     0 84858.5714    0 3452 86998.0000 84858.5714  2.46%     -   13s
     0     0 84858.5714    0 3455 86998.0000 84858.5714  2.46%     -   13s
     0     0 84858.5714    0 3452 86998.0000 84858.5714  2.46%     -   13s
     0     0 85029.8889    0 3891 86998.0000 85029.8889  2.26%     -   15s
     0     0 85029.8889    0 3889 86998.0000 85029.8889  2.26%     -   16s
     0     0 85029.8889    0 3895 86998.0000 85029.8889  2.26%     -   16s
     0     0 85029.8889    0 3895 86998.0000 85029.8889  2.26%     -   16s
     0     0 85030.0000    0 4106 86998.0000 85030.0000  2.26%     -   18s
     0     0 85142.5000    0 4109 86998.0000 85142.5000  2.13%     -   18s
     0     0 85142.5000    0 4111 86998.0000 85142.5000  2.13%     -   18s
     0     0 85142.5000    0 4112 86998.0000 85142.5000  2.13%     -   19s
     0     0 85142.5000    0 4115 86998.0000 85142.5000  2.13%     -   19s
     0     0 85143.9167    0 4417 86998.0000 85143.9167  2.13%     -   20s
     0     0 85143.9167    0 4412 86998.0000 85143.9167  2.13%     -   21s
     0     2 85143.9167    0 4404 86998.0000 85143.9167  2.13%     -   25s
     7    12 85143.9167    3 4061 86998.0000 85143.9167  2.13%  2688   30s
*   14    14               3    86552.000000 85143.9167  1.63%  1810   32s
*   18    16               4    86204.000000 85143.9167  1.23%  1535   33s
    23    19 85311.4044    6 4015 86204.0000 85143.9167  1.23%  1310   35s
*   25    19               7    86162.000000 85143.9167  1.18%  1241   35s
H   29    23                    86161.000000 85143.9167  1.18%  1262   35s
*   40    17               7    86069.000000 85143.9167  1.07%  1215   38s
    48    18 86046.2379    8 4299 86069.0000 85143.9167  1.07%  1280   41s
    61    19     cutoff    5      86069.0000 85233.7667  0.97%  1212   45s

Cutting planes:
  Gomory: 2
  Zero half: 142

Explored 109 nodes (108698 simplex iterations) in 49.90 seconds
Thread count was 8 (of 8 available processors)

Solution count 9: 86069 86161 86162 ... 100499

Optimal solution found (tolerance 1.00e-04)
Best objective 8.606900000000e+04, best bound 8.606900000000e+04, gap 0.0000%

User-callback calls 9441, time in user-callback 0.05 sec
Solution written to /Users/mdeboute/Desktop/Etudes/Master/M2/S9/GOPP/Projet/multi-period-flp/solution/instSingle_I20_J250_T4_0_result.txt
